\Problem name: ilog.cplex

Minimize
 obj: c(0) + c(1) + c(2) + c(3) + c(4) + c(5) + c(6) + c(7) + c(8)
Subject To
 IloC0:   y(0)(0) - x(0)(0)(3) - x(0)(0)(2) - x(0)(0)(1)  = 0
 IloC1:   - c(0) + y(0)(0) <= 0
 IloC2:   y(0)(1) - x(0)(1)(3) - x(0)(1)(2) - x(0)(1)(1)  = 0
 IloC3:   - c(1) + y(0)(1) <= 0
 IloC4:   y(0)(2) - x(0)(2)(3) - x(0)(2)(2) - x(0)(2)(1)  = 0
 IloC5:   - c(2) + y(0)(2) <= 0
 IloC6:   y(0)(3) - x(0)(3)(3) - x(0)(3)(2) - x(0)(3)(1)  = 0
 IloC7:   - c(3) + y(0)(3) <= 0
 IloC8:   y(0)(4) - x(0)(4)(3) - x(0)(4)(2) - x(0)(4)(1)  = 0
 IloC9:   - c(4) + y(0)(4) <= 0
 IloC10:  y(0)(5) - x(0)(5)(3) - x(0)(5)(2) - x(0)(5)(1)  = 0
 IloC11:  - c(5) + y(0)(5) <= 0
 IloC12:  y(0)(6) - x(0)(6)(3) - x(0)(6)(2) - x(0)(6)(1)  = 0
 IloC13:  - c(6) + y(0)(6) <= 0
 IloC14:  y(0)(7) - x(0)(7)(3) - x(0)(7)(2) - x(0)(7)(1)  = 0
 IloC15:  - c(7) + y(0)(7) <= 0
 IloC16:  y(0)(8) - x(0)(8)(3) - x(0)(8)(2) - x(0)(8)(1)  = 0
 IloC17:  - c(8) + y(0)(8) <= 0
 IloC18:  y(1)(0) - x(1)(0)(3) - x(1)(0)(2) - x(1)(0)(1)  = 0
 IloC19:  - c(0) + y(1)(0) <= 0
 IloC20:  y(1)(1) - x(1)(1)(3) - x(1)(1)(2) - x(1)(1)(1)  = 0
 IloC21:  - c(1) + y(1)(1) <= 0
 IloC22:  y(1)(2) - x(1)(2)(3) - x(1)(2)(2) - x(1)(2)(1)  = 0
 IloC23:  - c(2) + y(1)(2) <= 0
 IloC24:  y(1)(3) - x(1)(3)(3) - x(1)(3)(2) - x(1)(3)(1)  = 0
 IloC25:  - c(3) + y(1)(3) <= 0
 IloC26:  y(1)(4) - x(1)(4)(3) - x(1)(4)(2) - x(1)(4)(1)  = 0
 IloC27:  - c(4) + y(1)(4) <= 0
 IloC28:  y(1)(5) - x(1)(5)(3) - x(1)(5)(2) - x(1)(5)(1)  = 0
 IloC29:  - c(5) + y(1)(5) <= 0
 IloC30:  y(1)(6) - x(1)(6)(3) - x(1)(6)(2) - x(1)(6)(1)  = 0
 IloC31:  - c(6) + y(1)(6) <= 0
 IloC32:  y(1)(7) - x(1)(7)(3) - x(1)(7)(2) - x(1)(7)(1)  = 0
 IloC33:  - c(7) + y(1)(7) <= 0
 IloC34:  y(1)(8) - x(1)(8)(3) - x(1)(8)(2) - x(1)(8)(1)  = 0
 IloC35:  - c(8) + y(1)(8) <= 0
 IloC36:  y(2)(0) - x(2)(0)(3) - x(2)(0)(2) - x(2)(0)(1)  = 0
 IloC37:  - c(0) + y(2)(0) <= 0
 IloC38:  y(2)(1) - x(2)(1)(3) - x(2)(1)(2) - x(2)(1)(1)  = 0
 IloC39:  - c(1) + y(2)(1) <= 0
 IloC40:  y(2)(2) - x(2)(2)(3) - x(2)(2)(2) - x(2)(2)(1)  = 0
 IloC41:  - c(2) + y(2)(2) <= 0
 IloC42:  y(2)(3) - x(2)(3)(3) - x(2)(3)(2) - x(2)(3)(1)  = 0
 IloC43:  - c(3) + y(2)(3) <= 0
 IloC44:  y(2)(4) - x(2)(4)(3) - x(2)(4)(2) - x(2)(4)(1)  = 0
 IloC45:  - c(4) + y(2)(4) <= 0
 IloC46:  y(2)(5) - x(2)(5)(3) - x(2)(5)(2) - x(2)(5)(1)  = 0
 IloC47:  - c(5) + y(2)(5) <= 0
 IloC48:  y(2)(6) - x(2)(6)(3) - x(2)(6)(2) - x(2)(6)(1)  = 0
 IloC49:  - c(6) + y(2)(6) <= 0
 IloC50:  y(2)(7) - x(2)(7)(3) - x(2)(7)(2) - x(2)(7)(1)  = 0
 IloC51:  - c(7) + y(2)(7) <= 0
 IloC52:  y(2)(8) - x(2)(8)(3) - x(2)(8)(2) - x(2)(8)(1)  = 0
 IloC53:  - c(8) + y(2)(8) <= 0
 IloC54:  y(3)(0) - x(3)(0)(3) - x(3)(0)(2) - x(3)(0)(1)  = 0
 IloC55:  - c(0) + y(3)(0) <= 0
 IloC56:  y(3)(1) - x(3)(1)(3) - x(3)(1)(2) - x(3)(1)(1)  = 0
 IloC57:  - c(1) + y(3)(1) <= 0
 IloC58:  y(3)(2) - x(3)(2)(3) - x(3)(2)(2) - x(3)(2)(1)  = 0
 IloC59:  - c(2) + y(3)(2) <= 0
 IloC60:  y(3)(3) - x(3)(3)(3) - x(3)(3)(2) - x(3)(3)(1)  = 0
 IloC61:  - c(3) + y(3)(3) <= 0
 IloC62:  y(3)(4) - x(3)(4)(3) - x(3)(4)(2) - x(3)(4)(1)  = 0
 IloC63:  - c(4) + y(3)(4) <= 0
 IloC64:  y(3)(5) - x(3)(5)(3) - x(3)(5)(2) - x(3)(5)(1)  = 0
 IloC65:  - c(5) + y(3)(5) <= 0
 IloC66:  y(3)(6) - x(3)(6)(3) - x(3)(6)(2) - x(3)(6)(1)  = 0
 IloC67:  - c(6) + y(3)(6) <= 0
 IloC68:  y(3)(7) - x(3)(7)(3) - x(3)(7)(2) - x(3)(7)(1)  = 0
 IloC69:  - c(7) + y(3)(7) <= 0
 IloC70:  y(3)(8) - x(3)(8)(3) - x(3)(8)(2) - x(3)(8)(1)  = 0
 IloC71:  - c(8) + y(3)(8) <= 0
 IloC72:  y(4)(0) - x(4)(0)(3) - x(4)(0)(2) - x(4)(0)(1)  = 0
 IloC73:  - c(0) + y(4)(0) <= 0
 IloC74:  y(4)(1) - x(4)(1)(3) - x(4)(1)(2) - x(4)(1)(1)  = 0
 IloC75:  - c(1) + y(4)(1) <= 0
 IloC76:  y(4)(2) - x(4)(2)(3) - x(4)(2)(2) - x(4)(2)(1)  = 0
 IloC77:  - c(2) + y(4)(2) <= 0
 IloC78:  y(4)(3) - x(4)(3)(3) - x(4)(3)(2) - x(4)(3)(1)  = 0
 IloC79:  - c(3) + y(4)(3) <= 0
 IloC80:  y(4)(4) - x(4)(4)(3) - x(4)(4)(2) - x(4)(4)(1)  = 0
 IloC81:  - c(4) + y(4)(4) <= 0
 IloC82:  y(4)(5) - x(4)(5)(3) - x(4)(5)(2) - x(4)(5)(1)  = 0
 IloC83:  - c(5) + y(4)(5) <= 0
 IloC84:  y(4)(6) - x(4)(6)(3) - x(4)(6)(2) - x(4)(6)(1)  = 0
 IloC85:  - c(6) + y(4)(6) <= 0
 IloC86:  y(4)(7) - x(4)(7)(3) - x(4)(7)(2) - x(4)(7)(1)  = 0
 IloC87:  - c(7) + y(4)(7) <= 0
 IloC88:  y(4)(8) - x(4)(8)(3) - x(4)(8)(2) - x(4)(8)(1)  = 0
 IloC89:  - c(8) + y(4)(8) <= 0
 IloC90:  y(5)(0) - x(5)(0)(3) - x(5)(0)(2) - x(5)(0)(1)  = 0
 IloC91:  - c(0) + y(5)(0) <= 0
 IloC92:  y(5)(1) - x(5)(1)(3) - x(5)(1)(2) - x(5)(1)(1)  = 0
 IloC93:  - c(1) + y(5)(1) <= 0
 IloC94:  y(5)(2) - x(5)(2)(3) - x(5)(2)(2) - x(5)(2)(1)  = 0
 IloC95:  - c(2) + y(5)(2) <= 0
 IloC96:  y(5)(3) - x(5)(3)(3) - x(5)(3)(2) - x(5)(3)(1)  = 0
 IloC97:  - c(3) + y(5)(3) <= 0
 IloC98:  y(5)(4) - x(5)(4)(3) - x(5)(4)(2) - x(5)(4)(1)  = 0
 IloC99:  - c(4) + y(5)(4) <= 0
 IloC100: y(5)(5) - x(5)(5)(3) - x(5)(5)(2) - x(5)(5)(1)  = 0
 IloC101: - c(5) + y(5)(5) <= 0
 IloC102: y(5)(6) - x(5)(6)(3) - x(5)(6)(2) - x(5)(6)(1)  = 0
 IloC103: - c(6) + y(5)(6) <= 0
 IloC104: y(5)(7) - x(5)(7)(3) - x(5)(7)(2) - x(5)(7)(1)  = 0
 IloC105: - c(7) + y(5)(7) <= 0
 IloC106: y(5)(8) - x(5)(8)(3) - x(5)(8)(2) - x(5)(8)(1)  = 0
 IloC107: - c(8) + y(5)(8) <= 0
 IloC108: x(0)(0)(3) + x(0)(0)(2) + x(0)(0)(1) <= 1
 IloC109: x(0)(1)(3) + x(0)(1)(2) + x(0)(1)(1) <= 1
 IloC110: x(0)(2)(3) + x(0)(2)(2) + x(0)(2)(1) <= 1
 IloC111: x(0)(3)(3) + x(0)(3)(2) + x(0)(3)(1) <= 1
 IloC112: x(0)(4)(3) + x(0)(4)(2) + x(0)(4)(1) <= 1
 IloC113: x(0)(5)(3) + x(0)(5)(2) + x(0)(5)(1) <= 1
 IloC114: x(0)(6)(3) + x(0)(6)(2) + x(0)(6)(1) <= 1
 IloC115: x(0)(7)(3) + x(0)(7)(2) + x(0)(7)(1) <= 1
 IloC116: x(0)(8)(3) + x(0)(8)(2) + x(0)(8)(1) <= 1
 IloC117: x(1)(0)(3) + x(1)(0)(2) + x(1)(0)(1) <= 1
 IloC118: x(1)(1)(3) + x(1)(1)(2) + x(1)(1)(1) <= 1
 IloC119: x(1)(2)(3) + x(1)(2)(2) + x(1)(2)(1) <= 1
 IloC120: x(1)(3)(3) + x(1)(3)(2) + x(1)(3)(1) <= 1
 IloC121: x(1)(4)(3) + x(1)(4)(2) + x(1)(4)(1) <= 1
 IloC122: x(1)(5)(3) + x(1)(5)(2) + x(1)(5)(1) <= 1
 IloC123: x(1)(6)(3) + x(1)(6)(2) + x(1)(6)(1) <= 1
 IloC124: x(1)(7)(3) + x(1)(7)(2) + x(1)(7)(1) <= 1
 IloC125: x(1)(8)(3) + x(1)(8)(2) + x(1)(8)(1) <= 1
 IloC126: x(2)(0)(3) + x(2)(0)(2) + x(2)(0)(1) <= 1
 IloC127: x(2)(1)(3) + x(2)(1)(2) + x(2)(1)(1) <= 1
 IloC128: x(2)(2)(3) + x(2)(2)(2) + x(2)(2)(1) <= 1
 IloC129: x(2)(3)(3) + x(2)(3)(2) + x(2)(3)(1) <= 1
 IloC130: x(2)(4)(3) + x(2)(4)(2) + x(2)(4)(1) <= 1
 IloC131: x(2)(5)(3) + x(2)(5)(2) + x(2)(5)(1) <= 1
 IloC132: x(2)(6)(3) + x(2)(6)(2) + x(2)(6)(1) <= 1
 IloC133: x(2)(7)(3) + x(2)(7)(2) + x(2)(7)(1) <= 1
 IloC134: x(2)(8)(3) + x(2)(8)(2) + x(2)(8)(1) <= 1
 IloC135: x(3)(0)(3) + x(3)(0)(2) + x(3)(0)(1) <= 1
 IloC136: x(3)(1)(3) + x(3)(1)(2) + x(3)(1)(1) <= 1
 IloC137: x(3)(2)(3) + x(3)(2)(2) + x(3)(2)(1) <= 1
 IloC138: x(3)(3)(3) + x(3)(3)(2) + x(3)(3)(1) <= 1
 IloC139: x(3)(4)(3) + x(3)(4)(2) + x(3)(4)(1) <= 1
 IloC140: x(3)(5)(3) + x(3)(5)(2) + x(3)(5)(1) <= 1
 IloC141: x(3)(6)(3) + x(3)(6)(2) + x(3)(6)(1) <= 1
 IloC142: x(3)(7)(3) + x(3)(7)(2) + x(3)(7)(1) <= 1
 IloC143: x(3)(8)(3) + x(3)(8)(2) + x(3)(8)(1) <= 1
 IloC144: x(4)(0)(3) + x(4)(0)(2) + x(4)(0)(1) <= 1
 IloC145: x(4)(1)(3) + x(4)(1)(2) + x(4)(1)(1) <= 1
 IloC146: x(4)(2)(3) + x(4)(2)(2) + x(4)(2)(1) <= 1
 IloC147: x(4)(3)(3) + x(4)(3)(2) + x(4)(3)(1) <= 1
 IloC148: x(4)(4)(3) + x(4)(4)(2) + x(4)(4)(1) <= 1
 IloC149: x(4)(5)(3) + x(4)(5)(2) + x(4)(5)(1) <= 1
 IloC150: x(4)(6)(3) + x(4)(6)(2) + x(4)(6)(1) <= 1
 IloC151: x(4)(7)(3) + x(4)(7)(2) + x(4)(7)(1) <= 1
 IloC152: x(4)(8)(3) + x(4)(8)(2) + x(4)(8)(1) <= 1
 IloC153: x(5)(0)(3) + x(5)(0)(2) + x(5)(0)(1) <= 1
 IloC154: x(5)(1)(3) + x(5)(1)(2) + x(5)(1)(1) <= 1
 IloC155: x(5)(2)(3) + x(5)(2)(2) + x(5)(2)(1) <= 1
 IloC156: x(5)(3)(3) + x(5)(3)(2) + x(5)(3)(1) <= 1
 IloC157: x(5)(4)(3) + x(5)(4)(2) + x(5)(4)(1) <= 1
 IloC158: x(5)(5)(3) + x(5)(5)(2) + x(5)(5)(1) <= 1
 IloC159: x(5)(6)(3) + x(5)(6)(2) + x(5)(6)(1) <= 1
 IloC160: x(5)(7)(3) + x(5)(7)(2) + x(5)(7)(1) <= 1
 IloC161: x(5)(8)(3) + x(5)(8)(2) + x(5)(8)(1) <= 1
 IloC162: y(0)(2) + y(1)(2) + x(1)(2)(1) + y(4)(2) <= 3
 IloC163: y(0)(2) + y(1)(2) + y(4)(2) + x(4)(2)(1) <= 3
 IloC164: y(0)(2) + x(0)(2)(1) + y(1)(2) + y(4)(2) <= 3
 IloC165: y(0)(2) + y(4)(2) + x(4)(2)(1) + y(5)(2) <= 3
 IloC166: y(0)(2) + x(0)(2)(1) + y(4)(2) + y(5)(2) <= 3
 IloC167: y(0)(2) + y(4)(2) + y(5)(2) + x(5)(2)(1) <= 3
 IloC168: y(0)(2) + y(2)(2) + x(2)(2)(1) + y(5)(2) <= 3
 IloC169: y(0)(2) + x(0)(2)(1) + y(2)(2) + y(5)(2) <= 3
 IloC170: y(0)(2) + y(2)(2) + y(5)(2) + x(5)(2)(1) <= 3
 IloC171: y(0)(2) + y(3)(2) + x(3)(2)(1) + y(4)(2) <= 3
 IloC172: y(0)(2) + y(3)(2) + y(4)(2) + x(4)(2)(1) <= 3
 IloC173: y(0)(2) + x(0)(2)(1) + y(3)(2) + y(4)(2) <= 3
 IloC174: y(0)(2) + y(2)(2) + x(2)(2)(1) + y(4)(2) <= 3
 IloC175: y(0)(2) + y(2)(2) + y(4)(2) + x(4)(2)(1) <= 3
 IloC176: y(0)(2) + x(0)(2)(1) + y(2)(2) + y(4)(2) <= 3
 IloC177: y(0)(2) + y(3)(2) + x(3)(2)(1) + y(5)(2) <= 3
 IloC178: y(0)(2) + x(0)(2)(1) + y(3)(2) + y(5)(2) <= 3
 IloC179: y(0)(2) + y(3)(2) + y(5)(2) + x(5)(2)(1) <= 3
 IloC180: y(0)(2) + y(2)(2) + y(3)(2) + x(3)(2)(1) <= 3
 IloC181: y(0)(2) + y(2)(2) + x(2)(2)(1) + y(3)(2) <= 3
 IloC182: y(0)(2) + x(0)(2)(1) + y(2)(2) + y(3)(2) <= 3
 IloC183: y(1)(2) + x(1)(2)(1) + y(3)(2) + y(4)(2) <= 3
 IloC184: y(1)(2) + y(3)(2) + x(3)(2)(1) + y(4)(2) <= 3
 IloC185: y(1)(2) + y(3)(2) + y(4)(2) + x(4)(2)(1) <= 3
 IloC186: y(0)(2) + y(1)(2) + x(1)(2)(1) + y(3)(2) <= 3
 IloC187: y(0)(2) + y(1)(2) + y(3)(2) + x(3)(2)(1) <= 3
 IloC188: y(0)(2) + x(0)(2)(1) + y(1)(2) + y(3)(2) <= 3
 IloC189: y(0)(2) + y(1)(2) + x(1)(2)(1) + y(5)(2) <= 3
 IloC190: y(0)(2) + y(1)(2) + y(5)(2) + x(5)(2)(1) <= 3
 IloC191: y(0)(2) + x(0)(2)(1) + y(1)(2) + y(5)(2) <= 3
 IloC192: y(1)(2) + x(1)(2)(1) + y(3)(2) + y(5)(2) <= 3
 IloC193: y(1)(2) + y(3)(2) + x(3)(2)(1) + y(5)(2) <= 3
 IloC194: y(1)(2) + y(3)(2) + y(5)(2) + x(5)(2)(1) <= 3
 IloC195: y(1)(2) + x(1)(2)(1) + y(2)(2) + y(4)(2) <= 3
 IloC196: y(1)(2) + y(2)(2) + x(2)(2)(1) + y(4)(2) <= 3
 IloC197: y(1)(2) + y(2)(2) + y(4)(2) + x(4)(2)(1) <= 3
 IloC198: y(2)(2) + x(2)(2)(1) + y(4)(2) + y(5)(2) <= 3
 IloC199: y(2)(2) + y(4)(2) + x(4)(2)(1) + y(5)(2) <= 3
 IloC200: y(2)(2) + y(4)(2) + y(5)(2) + x(5)(2)(1) <= 3
 IloC201: y(2)(2) + x(2)(2)(1) + y(3)(2) + y(4)(2) <= 3
 IloC202: y(2)(2) + y(3)(2) + x(3)(2)(1) + y(4)(2) <= 3
 IloC203: y(2)(2) + y(3)(2) + y(4)(2) + x(4)(2)(1) <= 3
 IloC204: y(0)(2) + y(1)(2) + x(1)(2)(1) + y(2)(2) <= 3
 IloC205: y(0)(2) + y(1)(2) + y(2)(2) + x(2)(2)(1) <= 3
 IloC206: y(0)(2) + x(0)(2)(1) + y(1)(2) + y(2)(2) <= 3
 IloC207: y(1)(2) + x(1)(2)(1) + y(4)(2) + y(5)(2) <= 3
 IloC208: y(1)(2) + y(4)(2) + x(4)(2)(1) + y(5)(2) <= 3
 IloC209: y(1)(2) + y(4)(2) + y(5)(2) + x(5)(2)(1) <= 3
 IloC210: y(1)(2) + x(1)(2)(1) + y(2)(2) + y(3)(2) <= 3
 IloC211: y(1)(2) + y(2)(2) + y(3)(2) + x(3)(2)(1) <= 3
 IloC212: y(1)(2) + y(2)(2) + x(2)(2)(1) + y(3)(2) <= 3
 IloC213: y(2)(2) + x(2)(2)(1) + y(3)(2) + y(5)(2) <= 3
 IloC214: y(2)(2) + y(3)(2) + x(3)(2)(1) + y(5)(2) <= 3
 IloC215: y(2)(2) + y(3)(2) + y(5)(2) + x(5)(2)(1) <= 3
 IloC216: y(3)(2) + x(3)(2)(1) + y(4)(2) + y(5)(2) <= 3
 IloC217: y(3)(2) + y(4)(2) + x(4)(2)(1) + y(5)(2) <= 3
 IloC218: y(3)(2) + y(4)(2) + y(5)(2) + x(5)(2)(1) <= 3
 IloC219: y(1)(2) + x(1)(2)(1) + y(2)(2) + y(5)(2) <= 3
 IloC220: y(1)(2) + y(2)(2) + x(2)(2)(1) + y(5)(2) <= 3
 IloC221: y(1)(2) + y(2)(2) + y(5)(2) + x(5)(2)(1) <= 3
 IloC222: 15000000 x(0)(0)(3) + 22500000 x(0)(0)(2) + 45000000 x(0)(0)(1)
          + 15000000 x(0)(2)(3) + 22500000 x(0)(2)(2) + 45000000 x(0)(2)(1)
          >= 40000000
 IloC223: 15000000 x(1)(0)(3) + 22500000 x(1)(0)(2) + 45000000 x(1)(0)(1)
          + 15000000 x(1)(2)(3) + 22500000 x(1)(2)(2) + 45000000 x(1)(2)(1)
          >= 20000000
 IloC224: 13333333.3333333 x(2)(0)(3) + 20000000 x(2)(0)(2)
          + 40000000 x(2)(0)(1) + 13333333.3333333 x(2)(2)(3)
          + 20000000 x(2)(2)(2) + 40000000 x(2)(2)(1) >= 80000000
 IloC225: 15000000 x(3)(2)(3) + 22500000 x(3)(2)(2) + 45000000 x(3)(2)(1)
          + 3333333.33333333 x(3)(3)(3) + 5000000 x(3)(3)(2)
          + 10000000 x(3)(3)(1) >= 20000000
 IloC226: 15000000 x(4)(2)(3) + 22500000 x(4)(2)(2) + 45000000 x(4)(2)(1)
          + 3333333.33333333 x(4)(7)(3) + 5000000 x(4)(7)(2)
          + 10000000 x(4)(7)(1) >= 60000000
 IloC227: 15000000 x(5)(2)(3) + 22500000 x(5)(2)(2) + 45000000 x(5)(2)(1)
          >= 20000000
Bounds
 0 <= c(0) <= 1
 0 <= c(1) <= 1
 0 <= c(2) <= 1
 0 <= c(3) <= 1
 0 <= c(4) <= 1
 0 <= c(5) <= 1
 0 <= c(6) <= 1
 0 <= c(7) <= 1
 0 <= c(8) <= 1
 0 <= y(0)(0) <= 1
 0 <= x(0)(0)(3) <= 1
 0 <= x(0)(0)(2) <= 1
 0 <= x(0)(0)(1) <= 1
 0 <= y(0)(1) <= 1
 0 <= x(0)(1)(3) <= 1
 0 <= x(0)(1)(2) <= 1
 0 <= x(0)(1)(1) <= 1
 0 <= y(0)(2) <= 1
 0 <= x(0)(2)(3) <= 1
 0 <= x(0)(2)(2) <= 1
 0 <= x(0)(2)(1) <= 1
 0 <= y(0)(3) <= 1
 0 <= x(0)(3)(3) <= 1
 0 <= x(0)(3)(2) <= 1
 0 <= x(0)(3)(1) <= 1
 0 <= y(0)(4) <= 1
 0 <= x(0)(4)(3) <= 1
 0 <= x(0)(4)(2) <= 1
 0 <= x(0)(4)(1) <= 1
 0 <= y(0)(5) <= 1
 0 <= x(0)(5)(3) <= 1
 0 <= x(0)(5)(2) <= 1
 0 <= x(0)(5)(1) <= 1
 0 <= y(0)(6) <= 1
 0 <= x(0)(6)(3) <= 1
 0 <= x(0)(6)(2) <= 1
 0 <= x(0)(6)(1) <= 1
 0 <= y(0)(7) <= 1
 0 <= x(0)(7)(3) <= 1
 0 <= x(0)(7)(2) <= 1
 0 <= x(0)(7)(1) <= 1
 0 <= y(0)(8) <= 1
 0 <= x(0)(8)(3) <= 1
 0 <= x(0)(8)(2) <= 1
 0 <= x(0)(8)(1) <= 1
 0 <= y(1)(0) <= 1
 0 <= x(1)(0)(3) <= 1
 0 <= x(1)(0)(2) <= 1
 0 <= x(1)(0)(1) <= 1
 0 <= y(1)(1) <= 1
 0 <= x(1)(1)(3) <= 1
 0 <= x(1)(1)(2) <= 1
 0 <= x(1)(1)(1) <= 1
 0 <= y(1)(2) <= 1
 0 <= x(1)(2)(3) <= 1
 0 <= x(1)(2)(2) <= 1
 0 <= x(1)(2)(1) <= 1
 0 <= y(1)(3) <= 1
 0 <= x(1)(3)(3) <= 1
 0 <= x(1)(3)(2) <= 1
 0 <= x(1)(3)(1) <= 1
 0 <= y(1)(4) <= 1
 0 <= x(1)(4)(3) <= 1
 0 <= x(1)(4)(2) <= 1
 0 <= x(1)(4)(1) <= 1
 0 <= y(1)(5) <= 1
 0 <= x(1)(5)(3) <= 1
 0 <= x(1)(5)(2) <= 1
 0 <= x(1)(5)(1) <= 1
 0 <= y(1)(6) <= 1
 0 <= x(1)(6)(3) <= 1
 0 <= x(1)(6)(2) <= 1
 0 <= x(1)(6)(1) <= 1
 0 <= y(1)(7) <= 1
 0 <= x(1)(7)(3) <= 1
 0 <= x(1)(7)(2) <= 1
 0 <= x(1)(7)(1) <= 1
 0 <= y(1)(8) <= 1
 0 <= x(1)(8)(3) <= 1
 0 <= x(1)(8)(2) <= 1
 0 <= x(1)(8)(1) <= 1
 0 <= y(2)(0) <= 1
 0 <= x(2)(0)(3) <= 1
 0 <= x(2)(0)(2) <= 1
 0 <= x(2)(0)(1) <= 1
 0 <= y(2)(1) <= 1
 0 <= x(2)(1)(3) <= 1
 0 <= x(2)(1)(2) <= 1
 0 <= x(2)(1)(1) <= 1
 0 <= y(2)(2) <= 1
 0 <= x(2)(2)(3) <= 1
 0 <= x(2)(2)(2) <= 1
 0 <= x(2)(2)(1) <= 1
 0 <= y(2)(3) <= 1
 0 <= x(2)(3)(3) <= 1
 0 <= x(2)(3)(2) <= 1
 0 <= x(2)(3)(1) <= 1
 0 <= y(2)(4) <= 1
 0 <= x(2)(4)(3) <= 1
 0 <= x(2)(4)(2) <= 1
 0 <= x(2)(4)(1) <= 1
 0 <= y(2)(5) <= 1
 0 <= x(2)(5)(3) <= 1
 0 <= x(2)(5)(2) <= 1
 0 <= x(2)(5)(1) <= 1
 0 <= y(2)(6) <= 1
 0 <= x(2)(6)(3) <= 1
 0 <= x(2)(6)(2) <= 1
 0 <= x(2)(6)(1) <= 1
 0 <= y(2)(7) <= 1
 0 <= x(2)(7)(3) <= 1
 0 <= x(2)(7)(2) <= 1
 0 <= x(2)(7)(1) <= 1
 0 <= y(2)(8) <= 1
 0 <= x(2)(8)(3) <= 1
 0 <= x(2)(8)(2) <= 1
 0 <= x(2)(8)(1) <= 1
 0 <= y(3)(0) <= 1
 0 <= x(3)(0)(3) <= 1
 0 <= x(3)(0)(2) <= 1
 0 <= x(3)(0)(1) <= 1
 0 <= y(3)(1) <= 1
 0 <= x(3)(1)(3) <= 1
 0 <= x(3)(1)(2) <= 1
 0 <= x(3)(1)(1) <= 1
 0 <= y(3)(2) <= 1
 0 <= x(3)(2)(3) <= 1
 0 <= x(3)(2)(2) <= 1
 0 <= x(3)(2)(1) <= 1
 0 <= y(3)(3) <= 1
 0 <= x(3)(3)(3) <= 1
 0 <= x(3)(3)(2) <= 1
 0 <= x(3)(3)(1) <= 1
 0 <= y(3)(4) <= 1
 0 <= x(3)(4)(3) <= 1
 0 <= x(3)(4)(2) <= 1
 0 <= x(3)(4)(1) <= 1
 0 <= y(3)(5) <= 1
 0 <= x(3)(5)(3) <= 1
 0 <= x(3)(5)(2) <= 1
 0 <= x(3)(5)(1) <= 1
 0 <= y(3)(6) <= 1
 0 <= x(3)(6)(3) <= 1
 0 <= x(3)(6)(2) <= 1
 0 <= x(3)(6)(1) <= 1
 0 <= y(3)(7) <= 1
 0 <= x(3)(7)(3) <= 1
 0 <= x(3)(7)(2) <= 1
 0 <= x(3)(7)(1) <= 1
 0 <= y(3)(8) <= 1
 0 <= x(3)(8)(3) <= 1
 0 <= x(3)(8)(2) <= 1
 0 <= x(3)(8)(1) <= 1
 0 <= y(4)(0) <= 1
 0 <= x(4)(0)(3) <= 1
 0 <= x(4)(0)(2) <= 1
 0 <= x(4)(0)(1) <= 1
 0 <= y(4)(1) <= 1
 0 <= x(4)(1)(3) <= 1
 0 <= x(4)(1)(2) <= 1
 0 <= x(4)(1)(1) <= 1
 0 <= y(4)(2) <= 1
 0 <= x(4)(2)(3) <= 1
 0 <= x(4)(2)(2) <= 1
 0 <= x(4)(2)(1) <= 1
 0 <= y(4)(3) <= 1
 0 <= x(4)(3)(3) <= 1
 0 <= x(4)(3)(2) <= 1
 0 <= x(4)(3)(1) <= 1
 0 <= y(4)(4) <= 1
 0 <= x(4)(4)(3) <= 1
 0 <= x(4)(4)(2) <= 1
 0 <= x(4)(4)(1) <= 1
 0 <= y(4)(5) <= 1
 0 <= x(4)(5)(3) <= 1
 0 <= x(4)(5)(2) <= 1
 0 <= x(4)(5)(1) <= 1
 0 <= y(4)(6) <= 1
 0 <= x(4)(6)(3) <= 1
 0 <= x(4)(6)(2) <= 1
 0 <= x(4)(6)(1) <= 1
 0 <= y(4)(7) <= 1
 0 <= x(4)(7)(3) <= 1
 0 <= x(4)(7)(2) <= 1
 0 <= x(4)(7)(1) <= 1
 0 <= y(4)(8) <= 1
 0 <= x(4)(8)(3) <= 1
 0 <= x(4)(8)(2) <= 1
 0 <= x(4)(8)(1) <= 1
 0 <= y(5)(0) <= 1
 0 <= x(5)(0)(3) <= 1
 0 <= x(5)(0)(2) <= 1
 0 <= x(5)(0)(1) <= 1
 0 <= y(5)(1) <= 1
 0 <= x(5)(1)(3) <= 1
 0 <= x(5)(1)(2) <= 1
 0 <= x(5)(1)(1) <= 1
 0 <= y(5)(2) <= 1
 0 <= x(5)(2)(3) <= 1
 0 <= x(5)(2)(2) <= 1
 0 <= x(5)(2)(1) <= 1
 0 <= y(5)(3) <= 1
 0 <= x(5)(3)(3) <= 1
 0 <= x(5)(3)(2) <= 1
 0 <= x(5)(3)(1) <= 1
 0 <= y(5)(4) <= 1
 0 <= x(5)(4)(3) <= 1
 0 <= x(5)(4)(2) <= 1
 0 <= x(5)(4)(1) <= 1
 0 <= y(5)(5) <= 1
 0 <= x(5)(5)(3) <= 1
 0 <= x(5)(5)(2) <= 1
 0 <= x(5)(5)(1) <= 1
 0 <= y(5)(6) <= 1
 0 <= x(5)(6)(3) <= 1
 0 <= x(5)(6)(2) <= 1
 0 <= x(5)(6)(1) <= 1
 0 <= y(5)(7) <= 1
 0 <= x(5)(7)(3) <= 1
 0 <= x(5)(7)(2) <= 1
 0 <= x(5)(7)(1) <= 1
 0 <= y(5)(8) <= 1
 0 <= x(5)(8)(3) <= 1
 0 <= x(5)(8)(2) <= 1
 0 <= x(5)(8)(1) <= 1
Generals
 c(0)  c(1)  c(2)  c(3)  c(4)  c(5)  c(6)  c(7)  c(8)  y(0)(0)  x(0)(0)(3) 
 x(0)(0)(2)  x(0)(0)(1)  y(0)(1)  x(0)(1)(3)  x(0)(1)(2)  x(0)(1)(1)  y(0)(2) 
 x(0)(2)(3)  x(0)(2)(2)  x(0)(2)(1)  y(0)(3)  x(0)(3)(3)  x(0)(3)(2) 
 x(0)(3)(1)  y(0)(4)  x(0)(4)(3)  x(0)(4)(2)  x(0)(4)(1)  y(0)(5)  x(0)(5)(3) 
 x(0)(5)(2)  x(0)(5)(1)  y(0)(6)  x(0)(6)(3)  x(0)(6)(2)  x(0)(6)(1)  y(0)(7) 
 x(0)(7)(3)  x(0)(7)(2)  x(0)(7)(1)  y(0)(8)  x(0)(8)(3)  x(0)(8)(2) 
 x(0)(8)(1)  y(1)(0)  x(1)(0)(3)  x(1)(0)(2)  x(1)(0)(1)  y(1)(1)  x(1)(1)(3) 
 x(1)(1)(2)  x(1)(1)(1)  y(1)(2)  x(1)(2)(3)  x(1)(2)(2)  x(1)(2)(1)  y(1)(3) 
 x(1)(3)(3)  x(1)(3)(2)  x(1)(3)(1)  y(1)(4)  x(1)(4)(3)  x(1)(4)(2) 
 x(1)(4)(1)  y(1)(5)  x(1)(5)(3)  x(1)(5)(2)  x(1)(5)(1)  y(1)(6)  x(1)(6)(3) 
 x(1)(6)(2)  x(1)(6)(1)  y(1)(7)  x(1)(7)(3)  x(1)(7)(2)  x(1)(7)(1)  y(1)(8) 
 x(1)(8)(3)  x(1)(8)(2)  x(1)(8)(1)  y(2)(0)  x(2)(0)(3)  x(2)(0)(2) 
 x(2)(0)(1)  y(2)(1)  x(2)(1)(3)  x(2)(1)(2)  x(2)(1)(1)  y(2)(2)  x(2)(2)(3) 
 x(2)(2)(2)  x(2)(2)(1)  y(2)(3)  x(2)(3)(3)  x(2)(3)(2)  x(2)(3)(1)  y(2)(4) 
 x(2)(4)(3)  x(2)(4)(2)  x(2)(4)(1)  y(2)(5)  x(2)(5)(3)  x(2)(5)(2) 
 x(2)(5)(1)  y(2)(6)  x(2)(6)(3)  x(2)(6)(2)  x(2)(6)(1)  y(2)(7)  x(2)(7)(3) 
 x(2)(7)(2)  x(2)(7)(1)  y(2)(8)  x(2)(8)(3)  x(2)(8)(2)  x(2)(8)(1)  y(3)(0) 
 x(3)(0)(3)  x(3)(0)(2)  x(3)(0)(1)  y(3)(1)  x(3)(1)(3)  x(3)(1)(2) 
 x(3)(1)(1)  y(3)(2)  x(3)(2)(3)  x(3)(2)(2)  x(3)(2)(1)  y(3)(3)  x(3)(3)(3) 
 x(3)(3)(2)  x(3)(3)(1)  y(3)(4)  x(3)(4)(3)  x(3)(4)(2)  x(3)(4)(1)  y(3)(5) 
 x(3)(5)(3)  x(3)(5)(2)  x(3)(5)(1)  y(3)(6)  x(3)(6)(3)  x(3)(6)(2) 
 x(3)(6)(1)  y(3)(7)  x(3)(7)(3)  x(3)(7)(2)  x(3)(7)(1)  y(3)(8)  x(3)(8)(3) 
 x(3)(8)(2)  x(3)(8)(1)  y(4)(0)  x(4)(0)(3)  x(4)(0)(2)  x(4)(0)(1)  y(4)(1) 
 x(4)(1)(3)  x(4)(1)(2)  x(4)(1)(1)  y(4)(2)  x(4)(2)(3)  x(4)(2)(2) 
 x(4)(2)(1)  y(4)(3)  x(4)(3)(3)  x(4)(3)(2)  x(4)(3)(1)  y(4)(4)  x(4)(4)(3) 
 x(4)(4)(2)  x(4)(4)(1)  y(4)(5)  x(4)(5)(3)  x(4)(5)(2)  x(4)(5)(1)  y(4)(6) 
 x(4)(6)(3)  x(4)(6)(2)  x(4)(6)(1)  y(4)(7)  x(4)(7)(3)  x(4)(7)(2) 
 x(4)(7)(1)  y(4)(8)  x(4)(8)(3)  x(4)(8)(2)  x(4)(8)(1)  y(5)(0)  x(5)(0)(3) 
 x(5)(0)(2)  x(5)(0)(1)  y(5)(1)  x(5)(1)(3)  x(5)(1)(2)  x(5)(1)(1)  y(5)(2) 
 x(5)(2)(3)  x(5)(2)(2)  x(5)(2)(1)  y(5)(3)  x(5)(3)(3)  x(5)(3)(2) 
 x(5)(3)(1)  y(5)(4)  x(5)(4)(3)  x(5)(4)(2)  x(5)(4)(1)  y(5)(5)  x(5)(5)(3) 
 x(5)(5)(2)  x(5)(5)(1)  y(5)(6)  x(5)(6)(3)  x(5)(6)(2)  x(5)(6)(1)  y(5)(7) 
 x(5)(7)(3)  x(5)(7)(2)  x(5)(7)(1)  y(5)(8)  x(5)(8)(3)  x(5)(8)(2) 
 x(5)(8)(1) 
End
